p cnf 258 1244
1 2 3 4 5 0
-1 -181 0
-1 -182 0
-1 -183 0
-2 181 0
-2 -182 0
-2 -183 0
-3 -181 0
-3 182 0
-3 -183 0
-4 181 0
-4 182 0
-4 -183 0
-5 -181 0
-5 -182 0
-5 183 0
-1 31 0
-1 6 0
-2 32 0
-2 7 0
-3 33 0
-3 8 0
-4 34 0
-4 9 0
-5 35 0
-5 10 0
6 7 8 9 10 0
-6 -184 0
-6 -185 0
-6 -186 0
-7 184 0
-7 -185 0
-7 -186 0
-8 -184 0
-8 185 0
-8 -186 0
-9 184 0
-9 185 0
-9 -186 0
-10 -184 0
-10 -185 0
-10 186 0
-6 1 11 0
-6 1 36 0
-6 11 36 0
-7 2 12 0
-7 2 37 0
-7 12 37 0
-8 3 13 0
-8 3 38 0
-8 13 38 0
-9 4 14 0
-9 4 39 0
-9 14 39 0
-10 5 15 0
-10 5 40 0
-10 15 40 0
-6 -1 -11 -36 0
-7 -2 -12 -37 0
-8 -3 -13 -38 0
-9 -4 -14 -39 0
-10 -5 -15 -40 0
11 0
-12 0
-13 0
-14 0
-15 0
6 16 41 0
-6 -16 0
-6 -41 0
-16 -41 0
16 17 18 19 20 0
-16 -187 0
-16 -188 0
-16 -189 0
-17 187 0
-17 -188 0
-17 -189 0
-18 -187 0
-18 188 0
-18 -189 0
-19 187 0
-19 188 0
-19 -189 0
-20 -187 0
-20 -188 0
-20 189 0
-16 11 21 0
-16 11 46 0
-16 21 46 0
-17 12 22 0
-17 12 47 0
-17 22 47 0
-18 13 23 0
-18 13 48 0
-18 23 48 0
-19 14 24 0
-19 14 49 0
-19 24 49 0
-20 15 25 0
-20 15 50 0
-20 25 50 0
-16 -11 -21 -46 0
-17 -12 -22 -47 0
-18 -13 -23 -48 0
-19 -14 -24 -49 0
-20 -15 -25 -50 0
25 0
-21 0
-22 0
-23 0
-24 0
20 30 55 0
-20 -30 0
-20 -55 0
-30 -55 0
28 0
-26 0
-27 0
-29 0
-30 0
58 23 0
-58 -23 0
31 32 33 34 35 0
-31 -190 0
-31 -191 0
-31 -192 0
-32 190 0
-32 -191 0
-32 -192 0
-33 -190 0
-33 191 0
-33 -192 0
-34 190 0
-34 191 0
-34 -192 0
-35 -190 0
-35 -191 0
-35 192 0
-31 61 36 0
-31 61 1 0
-31 36 1 0
-32 62 37 0
-32 62 2 0
-32 37 2 0
-33 63 38 0
-33 63 3 0
-33 38 3 0
-34 64 39 0
-34 64 4 0
-34 39 4 0
-35 65 40 0
-35 65 5 0
-35 40 5 0
-31 -61 -36 -1 0
-32 -62 -37 -2 0
-33 -63 -38 -3 0
-34 -64 -39 -4 0
-35 -65 -40 -5 0
36 37 38 39 40 0
-36 -193 0
-36 -194 0
-36 -195 0
-37 193 0
-37 -194 0
-37 -195 0
-38 -193 0
-38 194 0
-38 -195 0
-39 193 0
-39 194 0
-39 -195 0
-40 -193 0
-40 -194 0
-40 195 0
-36 66 41 6 0
-36 66 41 31 0
-36 66 6 31 0
-36 41 6 31 0
-37 67 42 7 0
-37 67 42 32 0
-37 67 7 32 0
-37 42 7 32 0
-38 68 43 8 0
-38 68 43 33 0
-38 68 8 33 0
-38 43 8 33 0
-39 69 44 9 0
-39 69 44 34 0
-39 69 9 34 0
-39 44 9 34 0
-40 70 45 10 0
-40 70 45 35 0
-40 70 10 35 0
-40 45 10 35 0
-36 -66 -41 -6 0
-36 -66 -41 -31 0
-36 -66 -6 -31 0
-36 -41 -6 -31 0
-37 -67 -42 -7 0
-37 -67 -42 -32 0
-37 -67 -7 -32 0
-37 -42 -7 -32 0
-38 -68 -43 -8 0
-38 -68 -43 -33 0
-38 -68 -8 -33 0
-38 -43 -8 -33 0
-39 -69 -44 -9 0
-39 -69 -44 -34 0
-39 -69 -9 -34 0
-39 -44 -9 -34 0
-40 -70 -45 -10 0
-40 -70 -45 -35 0
-40 -70 -10 -35 0
-40 -45 -10 -35 0
41 42 43 44 45 0
-41 -196 0
-41 -197 0
-41 -198 0
-42 196 0
-42 -197 0
-42 -198 0
-43 -196 0
-43 197 0
-43 -198 0
-44 196 0
-44 197 0
-44 -198 0
-45 -196 0
-45 -197 0
-45 198 0
-41 71 46 11 0
-41 71 46 36 0
-41 71 11 36 0
-41 46 11 36 0
-42 72 47 12 0
-42 72 47 37 0
-42 72 12 37 0
-42 47 12 37 0
-43 73 48 13 0
-43 73 48 38 0
-43 73 13 38 0
-43 48 13 38 0
-44 74 49 14 0
-44 74 49 39 0
-44 74 14 39 0
-44 49 14 39 0
-45 75 50 15 0
-45 75 50 40 0
-45 75 15 40 0
-45 50 15 40 0
-41 -71 -46 -11 0
-41 -71 -46 -36 0
-41 -71 -11 -36 0
-41 -46 -11 -36 0
-42 -72 -47 -12 0
-42 -72 -47 -37 0
-42 -72 -12 -37 0
-42 -47 -12 -37 0
-43 -73 -48 -13 0
-43 -73 -48 -38 0
-43 -73 -13 -38 0
-43 -48 -13 -38 0
-44 -74 -49 -14 0
-44 -74 -49 -39 0
-44 -74 -14 -39 0
-44 -49 -14 -39 0
-45 -75 -50 -15 0
-45 -75 -50 -40 0
-45 -75 -15 -40 0
-45 -50 -15 -40 0
46 47 48 49 50 0
-46 -199 0
-46 -200 0
-46 -201 0
-47 199 0
-47 -200 0
-47 -201 0
-48 -199 0
-48 200 0
-48 -201 0
-49 199 0
-49 200 0
-49 -201 0
-50 -199 0
-50 -200 0
-50 201 0
-46 76 51 16 0
-46 76 51 41 0
-46 76 16 41 0
-46 51 16 41 0
-47 77 52 17 0
-47 77 52 42 0
-47 77 17 42 0
-47 52 17 42 0
-48 78 53 18 0
-48 78 53 43 0
-48 78 18 43 0
-48 53 18 43 0
-49 79 54 19 0
-49 79 54 44 0
-49 79 19 44 0
-49 54 19 44 0
-50 80 55 20 0
-50 80 55 45 0
-50 80 20 45 0
-50 55 20 45 0
-46 -76 -51 -16 0
-46 -76 -51 -41 0
-46 -76 -16 -41 0
-46 -51 -16 -41 0
-47 -77 -52 -17 0
-47 -77 -52 -42 0
-47 -77 -17 -42 0
-47 -52 -17 -42 0
-48 -78 -53 -18 0
-48 -78 -53 -43 0
-48 -78 -18 -43 0
-48 -53 -18 -43 0
-49 -79 -54 -19 0
-49 -79 -54 -44 0
-49 -79 -19 -44 0
-49 -54 -19 -44 0
-50 -80 -55 -20 0
-50 -80 -55 -45 0
-50 -80 -20 -45 0
-50 -55 -20 -45 0
52 0
-51 0
-53 0
-54 0
-55 0
82 57 22 47 0
-82 -57 0
-82 -22 0
-82 -47 0
-57 -22 0
-57 -47 0
-22 -47 0
56 57 58 59 60 0
-56 -202 0
-56 -203 0
-56 -204 0
-57 202 0
-57 -203 0
-57 -204 0
-58 -202 0
-58 203 0
-58 -204 0
-59 202 0
-59 203 0
-59 -204 0
-60 -202 0
-60 -203 0
-60 204 0
-56 86 51 0
-56 86 26 0
-56 51 26 0
-57 87 52 0
-57 87 27 0
-57 52 27 0
-58 88 53 0
-58 88 28 0
-58 53 28 0
-59 89 54 0
-59 89 29 0
-59 54 29 0
-60 90 55 0
-60 90 30 0
-60 55 30 0
-56 -86 -51 -26 0
-57 -87 -52 -27 0
-58 -88 -53 -28 0
-59 -89 -54 -29 0
-60 -90 -55 -30 0
61 62 63 64 65 0
-61 -205 0
-61 -206 0
-61 -207 0
-62 205 0
-62 -206 0
-62 -207 0
-63 -205 0
-63 206 0
-63 -207 0
-64 205 0
-64 206 0
-64 -207 0
-65 -205 0
-65 -206 0
-65 207 0
-61 91 66 0
-61 91 31 0
-61 66 31 0
-62 92 67 0
-62 92 32 0
-62 67 32 0
-63 93 68 0
-63 93 33 0
-63 68 33 0
-64 94 69 0
-64 94 34 0
-64 69 34 0
-65 95 70 0
-65 95 35 0
-65 70 35 0
-61 -91 -66 -31 0
-62 -92 -67 -32 0
-63 -93 -68 -33 0
-64 -94 -69 -34 0
-65 -95 -70 -35 0
66 67 68 69 70 0
-66 -208 0
-66 -209 0
-66 -210 0
-67 208 0
-67 -209 0
-67 -210 0
-68 -208 0
-68 209 0
-68 -210 0
-69 208 0
-69 209 0
-69 -210 0
-70 -208 0
-70 -209 0
-70 210 0
-66 96 71 36 0
-66 96 71 61 0
-66 96 36 61 0
-66 71 36 61 0
-67 97 72 37 0
-67 97 72 62 0
-67 97 37 62 0
-67 72 37 62 0
-68 98 73 38 0
-68 98 73 63 0
-68 98 38 63 0
-68 73 38 63 0
-69 99 74 39 0
-69 99 74 64 0
-69 99 39 64 0
-69 74 39 64 0
-70 100 75 40 0
-70 100 75 65 0
-70 100 40 65 0
-70 75 40 65 0
-66 -96 -71 -36 0
-66 -96 -71 -61 0
-66 -96 -36 -61 0
-66 -71 -36 -61 0
-67 -97 -72 -37 0
-67 -97 -72 -62 0
-67 -97 -37 -62 0
-67 -72 -37 -62 0
-68 -98 -73 -38 0
-68 -98 -73 -63 0
-68 -98 -38 -63 0
-68 -73 -38 -63 0
-69 -99 -74 -39 0
-69 -99 -74 -64 0
-69 -99 -39 -64 0
-69 -74 -39 -64 0
-70 -100 -75 -40 0
-70 -100 -75 -65 0
-70 -100 -40 -65 0
-70 -75 -40 -65 0
72 0
-71 0
-73 0
-74 0
-75 0
102 77 42 67 0
-102 -77 0
-102 -42 0
-102 -67 0
-77 -42 0
-77 -67 0
-42 -67 0
76 77 78 79 80 0
-76 -211 0
-76 -212 0
-76 -213 0
-77 211 0
-77 -212 0
-77 -213 0
-78 -211 0
-78 212 0
-78 -213 0
-79 211 0
-79 212 0
-79 -213 0
-80 -211 0
-80 -212 0
-80 213 0
-76 106 81 46 0
-76 106 81 71 0
-76 106 46 71 0
-76 81 46 71 0
-77 107 82 47 0
-77 107 82 72 0
-77 107 47 72 0
-77 82 47 72 0
-78 108 83 48 0
-78 108 83 73 0
-78 108 48 73 0
-78 83 48 73 0
-79 109 84 49 0
-79 109 84 74 0
-79 109 49 74 0
-79 84 49 74 0
-80 110 85 50 0
-80 110 85 75 0
-80 110 50 75 0
-80 85 50 75 0
-76 -106 -81 -46 0
-76 -106 -81 -71 0
-76 -106 -46 -71 0
-76 -81 -46 -71 0
-77 -107 -82 -47 0
-77 -107 -82 -72 0
-77 -107 -47 -72 0
-77 -82 -47 -72 0
-78 -108 -83 -48 0
-78 -108 -83 -73 0
-78 -108 -48 -73 0
-78 -83 -48 -73 0
-79 -109 -84 -49 0
-79 -109 -84 -74 0
-79 -109 -49 -74 0
-79 -84 -49 -74 0
-80 -110 -85 -50 0
-80 -110 -85 -75 0
-80 -110 -50 -75 0
-80 -85 -50 -75 0
81 82 83 84 85 0
-81 -214 0
-81 -215 0
-81 -216 0
-82 214 0
-82 -215 0
-82 -216 0
-83 -214 0
-83 215 0
-83 -216 0
-84 214 0
-84 215 0
-84 -216 0
-85 -214 0
-85 -215 0
-85 216 0
-81 111 86 51 0
-81 111 86 76 0
-81 111 51 76 0
-81 86 51 76 0
-82 112 87 52 0
-82 112 87 77 0
-82 112 52 77 0
-82 87 52 77 0
-83 113 88 53 0
-83 113 88 78 0
-83 113 53 78 0
-83 88 53 78 0
-84 114 89 54 0
-84 114 89 79 0
-84 114 54 79 0
-84 89 54 79 0
-85 115 90 55 0
-85 115 90 80 0
-85 115 55 80 0
-85 90 55 80 0
-81 -111 -86 -51 0
-81 -111 -86 -76 0
-81 -111 -51 -76 0
-81 -86 -51 -76 0
-82 -112 -87 -52 0
-82 -112 -87 -77 0
-82 -112 -52 -77 0
-82 -87 -52 -77 0
-83 -113 -88 -53 0
-83 -113 -88 -78 0
-83 -113 -53 -78 0
-83 -88 -53 -78 0
-84 -114 -89 -54 0
-84 -114 -89 -79 0
-84 -114 -54 -79 0
-84 -89 -54 -79 0
-85 -115 -90 -55 0
-85 -115 -90 -80 0
-85 -115 -55 -80 0
-85 -90 -55 -80 0
86 87 88 89 90 0
-86 -217 0
-86 -218 0
-86 -219 0
-87 217 0
-87 -218 0
-87 -219 0
-88 -217 0
-88 218 0
-88 -219 0
-89 217 0
-89 218 0
-89 -219 0
-90 -217 0
-90 -218 0
-90 219 0
-86 116 81 0
-86 116 56 0
-86 81 56 0
-87 117 82 0
-87 117 57 0
-87 82 57 0
-88 118 83 0
-88 118 58 0
-88 83 58 0
-89 119 84 0
-89 119 59 0
-89 84 59 0
-90 120 85 0
-90 120 60 0
-90 85 60 0
-86 -116 -81 -56 0
-87 -117 -82 -57 0
-88 -118 -83 -58 0
-89 -119 -84 -59 0
-90 -120 -85 -60 0
91 92 93 94 95 0
-91 -220 0
-91 -221 0
-91 -222 0
-92 220 0
-92 -221 0
-92 -222 0
-93 -220 0
-93 221 0
-93 -222 0
-94 220 0
-94 221 0
-94 -222 0
-95 -220 0
-95 -221 0
-95 222 0
-91 121 96 0
-91 121 61 0
-91 96 61 0
-92 122 97 0
-92 122 62 0
-92 97 62 0
-93 123 98 0
-93 123 63 0
-93 98 63 0
-94 124 99 0
-94 124 64 0
-94 99 64 0
-95 125 100 0
-95 125 65 0
-95 100 65 0
-91 -121 -96 -61 0
-92 -122 -97 -62 0
-93 -123 -98 -63 0
-94 -124 -99 -64 0
-95 -125 -100 -65 0
100 0
-96 0
-97 0
-98 0
-99 0
130 105 70 95 0
-130 -105 0
-130 -70 0
-130 -95 0
-105 -70 0
-105 -95 0
-70 -95 0
101 102 103 104 105 0
-101 -223 0
-101 -224 0
-101 -225 0
-102 223 0
-102 -224 0
-102 -225 0
-103 -223 0
-103 224 0
-103 -225 0
-104 223 0
-104 224 0
-104 -225 0
-105 -223 0
-105 -224 0
-105 225 0
-101 131 106 71 0
-101 131 106 96 0
-101 131 71 96 0
-101 106 71 96 0
-102 132 107 72 0
-102 132 107 97 0
-102 132 72 97 0
-102 107 72 97 0
-103 133 108 73 0
-103 133 108 98 0
-103 133 73 98 0
-103 108 73 98 0
-104 134 109 74 0
-104 134 109 99 0
-104 134 74 99 0
-104 109 74 99 0
-105 135 110 75 0
-105 135 110 100 0
-105 135 75 100 0
-105 110 75 100 0
-101 -131 -106 -71 0
-101 -131 -106 -96 0
-101 -131 -71 -96 0
-101 -106 -71 -96 0
-102 -132 -107 -72 0
-102 -132 -107 -97 0
-102 -132 -72 -97 0
-102 -107 -72 -97 0
-103 -133 -108 -73 0
-103 -133 -108 -98 0
-103 -133 -73 -98 0
-103 -108 -73 -98 0
-104 -134 -109 -74 0
-104 -134 -109 -99 0
-104 -134 -74 -99 0
-104 -109 -74 -99 0
-105 -135 -110 -75 0
-105 -135 -110 -100 0
-105 -135 -75 -100 0
-105 -110 -75 -100 0
106 107 108 109 110 0
-106 -226 0
-106 -227 0
-106 -228 0
-107 226 0
-107 -227 0
-107 -228 0
-108 -226 0
-108 227 0
-108 -228 0
-109 226 0
-109 227 0
-109 -228 0
-110 -226 0
-110 -227 0
-110 228 0
-106 136 111 76 0
-106 136 111 101 0
-106 136 76 101 0
-106 111 76 101 0
-107 137 112 77 0
-107 137 112 102 0
-107 137 77 102 0
-107 112 77 102 0
-108 138 113 78 0
-108 138 113 103 0
-108 138 78 103 0
-108 113 78 103 0
-109 139 114 79 0
-109 139 114 104 0
-109 139 79 104 0
-109 114 79 104 0
-110 140 115 80 0
-110 140 115 105 0
-110 140 80 105 0
-110 115 80 105 0
-106 -136 -111 -76 0
-106 -136 -111 -101 0
-106 -136 -76 -101 0
-106 -111 -76 -101 0
-107 -137 -112 -77 0
-107 -137 -112 -102 0
-107 -137 -77 -102 0
-107 -112 -77 -102 0
-108 -138 -113 -78 0
-108 -138 -113 -103 0
-108 -138 -78 -103 0
-108 -113 -78 -103 0
-109 -139 -114 -79 0
-109 -139 -114 -104 0
-109 -139 -79 -104 0
-109 -114 -79 -104 0
-110 -140 -115 -80 0
-110 -140 -115 -105 0
-110 -140 -80 -105 0
-110 -115 -80 -105 0
111 112 113 114 115 0
-111 -229 0
-111 -230 0
-111 -231 0
-112 229 0
-112 -230 0
-112 -231 0
-113 -229 0
-113 230 0
-113 -231 0
-114 229 0
-114 230 0
-114 -231 0
-115 -229 0
-115 -230 0
-115 231 0
-111 141 116 81 0
-111 141 116 106 0
-111 141 81 106 0
-111 116 81 106 0
-112 142 117 82 0
-112 142 117 107 0
-112 142 82 107 0
-112 117 82 107 0
-113 143 118 83 0
-113 143 118 108 0
-113 143 83 108 0
-113 118 83 108 0
-114 144 119 84 0
-114 144 119 109 0
-114 144 84 109 0
-114 119 84 109 0
-115 145 120 85 0
-115 145 120 110 0
-115 145 85 110 0
-115 120 85 110 0
-111 -141 -116 -81 0
-111 -141 -116 -106 0
-111 -141 -81 -106 0
-111 -116 -81 -106 0
-112 -142 -117 -82 0
-112 -142 -117 -107 0
-112 -142 -82 -107 0
-112 -117 -82 -107 0
-113 -143 -118 -83 0
-113 -143 -118 -108 0
-113 -143 -83 -108 0
-113 -118 -83 -108 0
-114 -144 -119 -84 0
-114 -144 -119 -109 0
-114 -144 -84 -109 0
-114 -119 -84 -109 0
-115 -145 -120 -85 0
-115 -145 -120 -110 0
-115 -145 -85 -110 0
-115 -120 -85 -110 0
116 117 118 119 120 0
-116 -232 0
-116 -233 0
-116 -234 0
-117 232 0
-117 -233 0
-117 -234 0
-118 -232 0
-118 233 0
-118 -234 0
-119 232 0
-119 233 0
-119 -234 0
-120 -232 0
-120 -233 0
-120 234 0
-116 146 111 0
-116 146 86 0
-116 111 86 0
-117 147 112 0
-117 147 87 0
-117 112 87 0
-118 148 113 0
-118 148 88 0
-118 113 88 0
-119 149 114 0
-119 149 89 0
-119 114 89 0
-120 150 115 0
-120 150 90 0
-120 115 90 0
-116 -146 -111 -86 0
-117 -147 -112 -87 0
-118 -148 -113 -88 0
-119 -149 -114 -89 0
-120 -150 -115 -90 0
121 122 123 124 125 0
-121 -235 0
-121 -236 0
-121 -237 0
-122 235 0
-122 -236 0
-122 -237 0
-123 -235 0
-123 236 0
-123 -237 0
-124 235 0
-124 236 0
-124 -237 0
-125 -235 0
-125 -236 0
-125 237 0
-121 151 126 0
-121 151 91 0
-121 126 91 0
-122 152 127 0
-122 152 92 0
-122 127 92 0
-123 153 128 0
-123 153 93 0
-123 128 93 0
-124 154 129 0
-124 154 94 0
-124 129 94 0
-125 155 130 0
-125 155 95 0
-125 130 95 0
-121 -151 -126 -91 0
-122 -152 -127 -92 0
-123 -153 -128 -93 0
-124 -154 -129 -94 0
-125 -155 -130 -95 0
128 0
-126 0
-127 0
-129 0
-130 0
158 133 98 123 0
-158 -133 0
-158 -98 0
-158 -123 0
-133 -98 0
-133 -123 0
-98 -123 0
131 132 133 134 135 0
-131 -238 0
-131 -239 0
-131 -240 0
-132 238 0
-132 -239 0
-132 -240 0
-133 -238 0
-133 239 0
-133 -240 0
-134 238 0
-134 239 0
-134 -240 0
-135 -238 0
-135 -239 0
-135 240 0
-131 161 136 101 0
-131 161 136 126 0
-131 161 101 126 0
-131 136 101 126 0
-132 162 137 102 0
-132 162 137 127 0
-132 162 102 127 0
-132 137 102 127 0
-133 163 138 103 0
-133 163 138 128 0
-133 163 103 128 0
-133 138 103 128 0
-134 164 139 104 0
-134 164 139 129 0
-134 164 104 129 0
-134 139 104 129 0
-135 165 140 105 0
-135 165 140 130 0
-135 165 105 130 0
-135 140 105 130 0
-131 -161 -136 -101 0
-131 -161 -136 -126 0
-131 -161 -101 -126 0
-131 -136 -101 -126 0
-132 -162 -137 -102 0
-132 -162 -137 -127 0
-132 -162 -102 -127 0
-132 -137 -102 -127 0
-133 -163 -138 -103 0
-133 -163 -138 -128 0
-133 -163 -103 -128 0
-133 -138 -103 -128 0
-134 -164 -139 -104 0
-134 -164 -139 -129 0
-134 -164 -104 -129 0
-134 -139 -104 -129 0
-135 -165 -140 -105 0
-135 -165 -140 -130 0
-135 -165 -105 -130 0
-135 -140 -105 -130 0
136 137 138 139 140 0
-136 -241 0
-136 -242 0
-136 -243 0
-137 241 0
-137 -242 0
-137 -243 0
-138 -241 0
-138 242 0
-138 -243 0
-139 241 0
-139 242 0
-139 -243 0
-140 -241 0
-140 -242 0
-140 243 0
-136 166 141 106 0
-136 166 141 131 0
-136 166 106 131 0
-136 141 106 131 0
-137 167 142 107 0
-137 167 142 132 0
-137 167 107 132 0
-137 142 107 132 0
-138 168 143 108 0
-138 168 143 133 0
-138 168 108 133 0
-138 143 108 133 0
-139 169 144 109 0
-139 169 144 134 0
-139 169 109 134 0
-139 144 109 134 0
-140 170 145 110 0
-140 170 145 135 0
-140 170 110 135 0
-140 145 110 135 0
-136 -166 -141 -106 0
-136 -166 -141 -131 0
-136 -166 -106 -131 0
-136 -141 -106 -131 0
-137 -167 -142 -107 0
-137 -167 -142 -132 0
-137 -167 -107 -132 0
-137 -142 -107 -132 0
-138 -168 -143 -108 0
-138 -168 -143 -133 0
-138 -168 -108 -133 0
-138 -143 -108 -133 0
-139 -169 -144 -109 0
-139 -169 -144 -134 0
-139 -169 -109 -134 0
-139 -144 -109 -134 0
-140 -170 -145 -110 0
-140 -170 -145 -135 0
-140 -170 -110 -135 0
-140 -145 -110 -135 0
141 0
-142 0
-143 0
-144 0
-145 0
171 146 111 136 0
-171 -146 0
-171 -111 0
-171 -136 0
-146 -111 0
-146 -136 0
-111 -136 0
149 0
-146 0
-147 0
-148 0
-150 0
179 144 119 0
-179 -144 0
-179 -119 0
-144 -119 0
151 152 153 154 155 0
-151 -244 0
-151 -245 0
-151 -246 0
-152 244 0
-152 -245 0
-152 -246 0
-153 -244 0
-153 245 0
-153 -246 0
-154 244 0
-154 245 0
-154 -246 0
-155 -244 0
-155 -245 0
-155 246 0
-151 121 0
-151 156 0
-152 122 0
-152 157 0
-153 123 0
-153 158 0
-154 124 0
-154 159 0
-155 125 0
-155 160 0
156 157 158 159 160 0
-156 -247 0
-156 -248 0
-156 -249 0
-157 247 0
-157 -248 0
-157 -249 0
-158 -247 0
-158 248 0
-158 -249 0
-159 247 0
-159 248 0
-159 -249 0
-160 -247 0
-160 -248 0
-160 249 0
-156 126 161 0
-156 126 151 0
-156 161 151 0
-157 127 162 0
-157 127 152 0
-157 162 152 0
-158 128 163 0
-158 128 153 0
-158 163 153 0
-159 129 164 0
-159 129 154 0
-159 164 154 0
-160 130 165 0
-160 130 155 0
-160 165 155 0
-156 -126 -161 -151 0
-157 -127 -162 -152 0
-158 -128 -163 -153 0
-159 -129 -164 -154 0
-160 -130 -165 -155 0
161 162 163 164 165 0
-161 -250 0
-161 -251 0
-161 -252 0
-162 250 0
-162 -251 0
-162 -252 0
-163 -250 0
-163 251 0
-163 -252 0
-164 250 0
-164 251 0
-164 -252 0
-165 -250 0
-165 -251 0
-165 252 0
-161 131 166 0
-161 131 156 0
-161 166 156 0
-162 132 167 0
-162 132 157 0
-162 167 157 0
-163 133 168 0
-163 133 158 0
-163 168 158 0
-164 134 169 0
-164 134 159 0
-164 169 159 0
-165 135 170 0
-165 135 160 0
-165 170 160 0
-161 -131 -166 -156 0
-162 -132 -167 -157 0
-163 -133 -168 -158 0
-164 -134 -169 -159 0
-165 -135 -170 -160 0
166 167 168 169 170 0
-166 -253 0
-166 -254 0
-166 -255 0
-167 253 0
-167 -254 0
-167 -255 0
-168 -253 0
-168 254 0
-168 -255 0
-169 253 0
-169 254 0
-169 -255 0
-170 -253 0
-170 -254 0
-170 255 0
-166 136 171 0
-166 136 161 0
-166 171 161 0
-167 137 172 0
-167 137 162 0
-167 172 162 0
-168 138 173 0
-168 138 163 0
-168 173 163 0
-169 139 174 0
-169 139 164 0
-169 174 164 0
-170 140 175 0
-170 140 165 0
-170 175 165 0
-166 -136 -171 -161 0
-167 -137 -172 -162 0
-168 -138 -173 -163 0
-169 -139 -174 -164 0
-170 -140 -175 -165 0
174 0
-171 0
-172 0
-173 0
-175 0
144 179 169 0
-144 -179 0
-144 -169 0
-179 -169 0
176 177 178 179 180 0
-176 -256 0
-176 -257 0
-176 -258 0
-177 256 0
-177 -257 0
-177 -258 0
-178 -256 0
-178 257 0
-178 -258 0
-179 256 0
-179 257 0
-179 -258 0
-180 -256 0
-180 -257 0
-180 258 0
-176 146 0
-176 171 0
-177 147 0
-177 172 0
-178 148 0
-178 173 0
-179 149 0
-179 174 0
-180 150 0
-180 175 0
31 36 41 46 56 0
61 66 76 81 86 0
91 101 106 111 116 0
16 46 76 106 136 166 0
17 47 77 107 137 167 0
33 38 43 48 58 0
63 68 78 83 88 0
93 103 108 113 118 0
43 103 133 163 0
18 48 78 108 138 168 0
83 113 0
35 40 45 50 60 0
65 70 80 85 90 0
45 105 135 165 0
20 50 80 110 140 170 0